15,8	0,0	13,4	12,3	0,0	0,0	0,0	0,0	0,0	16,3
8,6	8,9	0,0	17,9	9,5	0,0	0,0	14,3	0,0	0,0
0,0	0,0	14,1	0,0	14,5	17,4	0,0	0,0	13,1	0,0
18,6	0,0	10,1	0,0	0,0	0,0	13,1	0,0	0,0	0,0
0,0	7,5	0,0	17,4	6,7	0,0	0,0	17,1	0,0	0,0
0,0	16,0	13,8	0,0	17,0	7,2	0,0	0,0	12,7	0,0
0,0	15,2	0,0	8,7	0,0	0,0	11,6	0,0	0,0	10,8
6,5	0,0	13,8	0,0	0,0	0,0	0,0	0,0	0,0	19,7
0,0	7,1	0,0	17,7	6,9	0,0	0,0	16,3	0,0	0,0
0,0	0,0	5,4	0,0	0,0	12,3	8,5	0,0	0,0	10,1
									
4,9	3,5	3,0	4,0	4,8	3,2	3,2	3,6	4,5	3,2
